src/inputs/sm4.dat
data;

set J := 1 2 3 4 5 6 7 8 9 10;
set I := 1 2 3 4 5 6;

param p := 
    1 153
    2 40
    3 85
    4 48
    5 172
    6 144
    7 183
    8 84
    9 30
    10 49;

param r := 
    1 54
    2 165
    3 16
    4 7
    5 187
    6 29
    7 163
    8 53
    9 42
    10 53;

param T := 188;
param R := 188;
param M := 1000000;

end;