src/out/sm4.dat.out
Problem:    modelo
Rows:       101
Columns:    73 (72 integer, 72 binary)
Non-zeros:  402
Status:     INTEGER OPTIMAL
Objective:  0 (MINimum)

   No.   Row name        Activity     Lower bound   Upper bound
------ ------------    ------------- ------------- -------------
     1 job_assignment[1]
                                   1             1             = 
     2 job_assignment[2]
                                   1             1             = 
     3 job_assignment[3]
                                   1             1             = 
     4 job_assignment[4]
                                   1             1             = 
     5 job_assignment[5]
                                   1             1             = 
     6 job_assignment[6]
                                   1             1             = 
     7 job_assignment[7]
                                   1             1             = 
     8 job_assignment[8]
                                   1             1             = 
     9 job_assignment[9]
                                   1             1             = 
    10 job_assignment[10]
                                   1             1             = 
    11 time_limit[1]
                                 172                         188 
    12 time_limit[2]
                                 153                         188 
    13 time_limit[3]
                                 144                         188 
    14 time_limit[4]
                                 173                         188 
    15 time_limit[5]
                                 163                         188 
    16 time_limit[6]
                                 183                         188 
    17 resource_limit[1]
                                 187                         188 
    18 resource_limit[2]
                                  54                         188 
    19 resource_limit[3]
                                  29                         188 
    20 resource_limit[4]
                                 188                         188 
    21 resource_limit[5]
                                 148                         188 
    22 resource_limit[6]
                                 163                         188 
    23 job_assignment_limit[1,1]
                                  -1                          -0 
    24 job_assignment_limit[1,2]
                                  -1                          -0 
    25 job_assignment_limit[1,3]
                                  -1                          -0 
    26 job_assignment_limit[1,4]
                                  -1                          -0 
    27 job_assignment_limit[1,5]
                                   0                          -0 
    28 job_assignment_limit[1,6]
                                  -1                          -0 
    29 job_assignment_limit[1,7]
                                  -1                          -0 
    30 job_assignment_limit[1,8]
                                  -1                          -0 
    31 job_assignment_limit[1,9]
                                  -1                          -0 
    32 job_assignment_limit[1,10]
                                  -1                          -0 
    33 job_assignment_limit[2,1]
                                   0                          -0 
    34 job_assignment_limit[2,2]
                                  -1                          -0 
    35 job_assignment_limit[2,3]
                                  -1                          -0 
    36 job_assignment_limit[2,4]
                                  -1                          -0 
    37 job_assignment_limit[2,5]
                                  -1                          -0 
    38 job_assignment_limit[2,6]
                                  -1                          -0 
    39 job_assignment_limit[2,7]
                                  -1                          -0 
    40 job_assignment_limit[2,8]
                                  -1                          -0 
    41 job_assignment_limit[2,9]
                                  -1                          -0 
    42 job_assignment_limit[2,10]
                                  -1                          -0 
    43 job_assignment_limit[3,1]
                                  -1                          -0 
    44 job_assignment_limit[3,2]
                                  -1                          -0 
    45 job_assignment_limit[3,3]
                                  -1                          -0 
    46 job_assignment_limit[3,4]
                                  -1                          -0 
    47 job_assignment_limit[3,5]
                                  -1                          -0 
    48 job_assignment_limit[3,6]
                                   0                          -0 
    49 job_assignment_limit[3,7]
                                  -1                          -0 
    50 job_assignment_limit[3,8]
                                  -1                          -0 
    51 job_assignment_limit[3,9]
                                  -1                          -0 
    52 job_assignment_limit[3,10]
                                  -1                          -0 
    53 job_assignment_limit[4,1]
                                  -1                          -0 
    54 job_assignment_limit[4,2]
                                   0                          -0 
    55 job_assignment_limit[4,3]
                                   0                          -0 
    56 job_assignment_limit[4,4]
                                   0                          -0 
    57 job_assignment_limit[4,5]
                                  -1                          -0 
    58 job_assignment_limit[4,6]
                                  -1                          -0 
    59 job_assignment_limit[4,7]
                                  -1                          -0 
    60 job_assignment_limit[4,8]
                                  -1                          -0 
    61 job_assignment_limit[4,9]
                                  -1                          -0 
    62 job_assignment_limit[4,10]
                                  -1                          -0 
    63 job_assignment_limit[5,1]
                                  -1                          -0 
    64 job_assignment_limit[5,2]
                                  -1                          -0 
    65 job_assignment_limit[5,3]
                                  -1                          -0 
    66 job_assignment_limit[5,4]
                                  -1                          -0 
    67 job_assignment_limit[5,5]
                                  -1                          -0 
    68 job_assignment_limit[5,6]
                                  -1                          -0 
    69 job_assignment_limit[5,7]
                                  -1                          -0 
    70 job_assignment_limit[5,8]
                                   0                          -0 
    71 job_assignment_limit[5,9]
                                   0                          -0 
    72 job_assignment_limit[5,10]
                                   0                          -0 
    73 job_assignment_limit[6,1]
                                  -1                          -0 
    74 job_assignment_limit[6,2]
                                  -1                          -0 
    75 job_assignment_limit[6,3]
                                  -1                          -0 
    76 job_assignment_limit[6,4]
                                  -1                          -0 
    77 job_assignment_limit[6,5]
                                  -1                          -0 
    78 job_assignment_limit[6,6]
                                  -1                          -0 
    79 job_assignment_limit[6,7]
                                   0                          -0 
    80 job_assignment_limit[6,8]
                                  -1                          -0 
    81 job_assignment_limit[6,9]
                                  -1                          -0 
    82 job_assignment_limit[6,10]
                                  -1                          -0 
    83 longest_idle_time
                                   1             1             = 
    84 longest_idle_time_limit[1]
                                  -1                          -0 
    85 longest_idle_time_limit[2]
                                  -1                          -0 
    86 longest_idle_time_limit[3]
                                  -1                          -0 
    87 longest_idle_time_limit[4]
                                  -1                          -0 
    88 longest_idle_time_limit[5]
                                  -1                          -0 
    89 longest_idle_time_limit[6]
                                   0                          -0 
    90 slack_constraint[1]
                              999988                       1e+06 
    91 slack_constraint[2]
                              999969                       1e+06 
    92 slack_constraint[3]
                              999960                       1e+06 
    93 slack_constraint[4]
                              999989                       1e+06 
    94 slack_constraint[5]
                              999979                       1e+06 
    95 slack_constraint[6]
                               1e+06                       1e+06 
    96 non_negativity_y[1]
                                   1            -0               
    97 non_negativity_y[2]
                                   1            -0               
    98 non_negativity_y[3]
                                   1            -0               
    99 non_negativity_y[4]
                                   1            -0               
   100 non_negativity_y[5]
                                   1            -0               
   101 non_negativity_y[6]
                                   1            -0               

   No. Column name       Activity     Lower bound   Upper bound
------ ------------    ------------- ------------- -------------
     1 X[1,1]       *              0             0             1 
     2 X[2,1]       *              1             0             1 
     3 X[3,1]       *              0             0             1 
     4 X[4,1]       *              0             0             1 
     5 X[5,1]       *              0             0             1 
     6 X[6,1]       *              0             0             1 
     7 X[1,2]       *              0             0             1 
     8 X[2,2]       *              0             0             1 
     9 X[3,2]       *              0             0             1 
    10 X[4,2]       *              1             0             1 
    11 X[5,2]       *              0             0             1 
    12 X[6,2]       *              0             0             1 
    13 X[1,3]       *              0             0             1 
    14 X[2,3]       *              0             0             1 
    15 X[3,3]       *              0             0             1 
    16 X[4,3]       *              1             0             1 
    17 X[5,3]       *              0             0             1 
    18 X[6,3]       *              0             0             1 
    19 X[1,4]       *              0             0             1 
    20 X[2,4]       *              0             0             1 
    21 X[3,4]       *              0             0             1 
    22 X[4,4]       *              1             0             1 
    23 X[5,4]       *              0             0             1 
    24 X[6,4]       *              0             0             1 
    25 X[1,5]       *              1             0             1 
    26 X[2,5]       *              0             0             1 
    27 X[3,5]       *              0             0             1 
    28 X[4,5]       *              0             0             1 
    29 X[5,5]       *              0             0             1 
    30 X[6,5]       *              0             0             1 
    31 X[1,6]       *              0             0             1 
    32 X[2,6]       *              0             0             1 
    33 X[3,6]       *              1             0             1 
    34 X[4,6]       *              0             0             1 
    35 X[5,6]       *              0             0             1 
    36 X[6,6]       *              0             0             1 
    37 X[1,7]       *              0             0             1 
    38 X[2,7]       *              0             0             1 
    39 X[3,7]       *              0             0             1 
    40 X[4,7]       *              0             0             1 
    41 X[5,7]       *              0             0             1 
    42 X[6,7]       *              1             0             1 
    43 X[1,8]       *              0             0             1 
    44 X[2,8]       *              0             0             1 
    45 X[3,8]       *              0             0             1 
    46 X[4,8]       *              0             0             1 
    47 X[5,8]       *              1             0             1 
    48 X[6,8]       *              0             0             1 
    49 X[1,9]       *              0             0             1 
    50 X[2,9]       *              0             0             1 
    51 X[3,9]       *              0             0             1 
    52 X[4,9]       *              0             0             1 
    53 X[5,9]       *              1             0             1 
    54 X[6,9]       *              0             0             1 
    55 X[1,10]      *              0             0             1 
    56 X[2,10]      *              0             0             1 
    57 X[3,10]      *              0             0             1 
    58 X[4,10]      *              0             0             1 
    59 X[5,10]      *              1             0             1 
    60 X[6,10]      *              0             0             1 
    61 y[1]         *              1             0             1 
    62 y[2]         *              1             0             1 
    63 y[3]         *              1             0             1 
    64 y[4]         *              1             0             1 
    65 y[5]         *              1             0             1 
    66 y[6]         *              1             0             1 
    67 w[1]         *              0             0             1 
    68 w[2]         *              0             0             1 
    69 w[3]         *              0             0             1 
    70 w[4]         *              0             0             1 
    71 w[5]         *              0             0             1 
    72 w[6]         *              1             0             1 
    73 z                       1e+06                             

Integer feasibility conditions:

KKT.PE: max.abs.err = 0.00e+00 on row 0
        max.rel.err = 0.00e+00 on row 0
        High quality

KKT.PB: max.abs.err = 0.00e+00 on row 0
        max.rel.err = 0.00e+00 on row 0
        High quality

End of output
